Set parameter TokenServer to value "hpc-licenses.hpcc.usc.edu"
Set parameter TimeLimit to value 3600
Gurobi Optimizer version 9.5.1 build v9.5.1rc2 (linux64)
Thread count: 20 physical cores, 20 logical processors, using up to 20 threads
Optimize a model with 6007 rows, 4529 columns and 24534 nonzeros
Model fingerprint: 0x1997a882
Variable types: 4506 continuous, 23 integer (23 binary)
Coefficient statistics:
  Matrix range     [1e+00, 1e+00]
  Objective range  [3e-03, 1e+00]
  Bounds range     [1e+00, 1e+00]
  RHS range        [1e+00, 1e+02]
Found heuristic solution: objective 255.4424668
Presolve removed 1520 rows and 1515 columns
Presolve time: 0.06s
Presolved: 4487 rows, 3014 columns, 21975 nonzeros
Variable types: 2994 continuous, 20 integer (20 binary)

Root relaxation: objective 2.705594e+02, 2491 iterations, 0.08 seconds (0.10 work units)

    Nodes    |    Current Node    |     Objective Bounds      |     Work
 Expl Unexpl |  Obj  Depth IntInf | Incumbent    BestBd   Gap | It/Node Time

     0     0  270.55944    0    2  255.44247  270.55944  5.92%     -    0s
H    0     0                     260.1616354  270.55944  4.00%     -    0s
     0     0  270.41812    0    2  260.16164  270.41812  3.94%     -    0s
H    0     0                     263.1575810  270.32476  2.72%     -    0s
     0     0  270.32476    0    2  263.15758  270.32476  2.72%     -    0s
     0     0  270.32303    0    2  263.15758  270.32303  2.72%     -    0s
     0     0  269.93777    0    3  263.15758  269.93777  2.58%     -    0s
     0     0  269.89802    0    6  263.15758  269.89802  2.56%     -    0s
     0     0  269.72113    0    3  263.15758  269.72113  2.49%     -    0s
     0     0  269.72113    0    4  263.15758  269.72113  2.49%     -    0s
     0     0  269.72113    0    2  263.15758  269.72113  2.49%     -    0s
     0     0  269.68534    0    3  263.15758  269.68534  2.48%     -    0s
     0     0  269.63189    0    6  263.15758  269.63189  2.46%     -    0s
     0     0  269.51695    0    2  263.15758  269.51695  2.42%     -    0s
     0     0  269.48259    0    5  263.15758  269.48259  2.40%     -    0s
     0     0  269.47367    0    5  263.15758  269.47367  2.40%     -    0s
     0     0  269.22356    0    5  263.15758  269.22356  2.31%     -    0s
     0     0  269.22312    0    5  263.15758  269.22312  2.30%     -    0s
     0     0  269.22312    0    5  263.15758  269.22312  2.30%     -    0s
     0     0  269.22312    0    5  263.15758  269.22312  2.30%     -    0s
     0     0  269.22312    0    7  263.15758  269.22312  2.30%     -    0s
     0     0  269.22312    0    5  263.15758  269.22312  2.30%     -    0s
     0     0  269.22312    0    5  263.15758  269.22312  2.30%     -    0s
     0     0  269.22312    0    5  263.15758  269.22312  2.30%     -    0s
H    0     0                     264.7445915  269.22312  1.69%     -    0s
     0     0  269.22312    0    5  264.74459  269.22312  1.69%     -    0s
H    0     0                     268.1067759  269.22312  0.42%     -    0s
     0     0  269.15950    0    5  268.10678  269.15950  0.39%     -    0s
     0     0  269.15683    0    5  268.10678  269.15683  0.39%     -    0s
     0     0  269.15683    0    5  268.10678  269.15683  0.39%     -    1s
     0     0  269.15683    0    5  268.10678  269.15683  0.39%     -    1s
     0     0  269.15683    0    6  268.10678  269.15683  0.39%     -    1s
     0     0  269.15683    0    6  268.10678  269.15683  0.39%     -    1s
     0     0  269.15683    0    5  268.10678  269.15683  0.39%     -    1s
     0     0  268.82690    0    2  268.10678  268.82690  0.27%     -    1s
     0     0  268.82690    0    2  268.10678  268.82690  0.27%     -    1s
     0     0  268.82690    0    2  268.10678  268.82690  0.27%     -    2s
     0     0  268.82690    0    2  268.10678  268.82690  0.27%     -    2s
     0     0  268.82690    0    2  268.10678  268.82690  0.27%     -    2s
     0     0  268.82690    0    2  268.10678  268.82690  0.27%     -    2s
     0     0  268.82690    0    2  268.10678  268.82690  0.27%     -    2s
     0     0  268.82690    0    2  268.10678  268.82690  0.27%     -    2s
     0     0  268.82690    0    2  268.10678  268.82690  0.27%     -    2s
     0     0  268.82690    0    2  268.10678  268.82690  0.27%     -    2s
     0     0  268.82690    0    2  268.10678  268.82690  0.27%     -    2s
     0     0  268.82690    0    2  268.10678  268.82690  0.27%     -    2s
     0     0  268.82690    0    2  268.10678  268.82690  0.27%     -    2s
     0     0  268.82690    0    2  268.10678  268.82690  0.27%     -    2s
     0     0  268.82690    0    3  268.10678  268.82690  0.27%     -    2s
     0     0  268.82690    0    3  268.10678  268.82690  0.27%     -    2s
     0     0  268.82690    0    2  268.10678  268.82690  0.27%     -    2s
     0     0  268.82690    0    7  268.10678  268.82690  0.27%     -    2s
     0     0  268.82690    0    7  268.10678  268.82690  0.27%     -    2s
     0     0  268.82690    0    7  268.10678  268.82690  0.27%     -    2s
H    0     0                     268.3745431  268.82690  0.17%     -    2s
     0     0  268.37454    0    7  268.37454  268.37454  0.00%     -    2s

Cutting planes:
  Gomory: 2
  MIR: 330
  Flow cover: 3
  RLT: 12
  Relax-and-lift: 1

Explored 1 nodes (7545 simplex iterations) in 2.53 seconds (1.44 work units)
Thread count was 20 (of 20 available processors)

Solution count 6: 268.375 268.107 264.745 ... 255.442

Optimal solution found (tolerance 1.00e-04)
Best objective 2.683745430626e+02, best bound 2.683745430626e+02, gap 0.0000%



#########node  1
V1.7
#########node  2
0.1836734693877551,0.8163265306122449
#########node  3
1.0,0.0


Total Solving Time 2.9059269428253174
obj value 268.37454306259116
Policy Regret train (Sum) 9.912030792665206
Best Treatment Found train (%) 57.599999999999994
treatment classification acc train (%) 70.19999999999999
Policy Regret test (Sum) 38.72832714295484
Best Treatment Found test (%) 81.04
treatment classification acc test (%) 65.7
